Optimal - objective value 1966.00000000
      1 x_1                     1                       9
      6 x_6                     1                       0
      8 x_8                     1                       0
     17 x_17                    1                      20
     23 x_23                    1                      -2
     26 x_26                    1                       0
     30 x_30                    1                      16
     31 x_31                    1                     -22
     38 x_38                    1                      18
     43 x_43                    1                     -15
     45 x_45                    1                      11
     49 x_49                    1                      17
     59 x_59                    1                       4
     65 x_65                    1                      -4
     67 x_67                    1                       0
     73 x_73                    1                      -3
     76 x_76                    1                     -11
     82 x_82                    1                       0
     84 x_84                    1                      17
     93 x_93                    1                      12
     96 x_96                    1                      47
     98 x_98                    1                      28
    102 x_102                   1                       0
    110 x_110                   1                      19
    112 x_112                   1                      15
    116 x_116                   1                       0
    121 x_121                   1                       1
    124 x_124                   1                       0
    126 x_126                   1                      20
    133 x_133                   1                      10
    135 x_135                   1                       0
    141 x_141                   1                      15
    144 x_144                   1                       0
    147 x_147                   1                       0
    152 x_152                   1                       9
    158 x_158                   1                      12
    163 x_163                   1                      10
    167 x_167                   1                      12
    172 x_172                   1                       0
    176 x_176                   1                      -4
    183 x_183                   1                      14
    185 x_185                   1                      -4
    190 x_190                   1                      20
    198 x_198                   1                      11
    201 x_201                   1                      49
    204 x_204                   1                     -19
    208 x_208                   1                      -7
    213 x_213                   1                      46
    217 x_217                   1                      21
    218 x_218                   1                      22
    225 x_225                   1                       0
    228 x_228                   1                       0
    232 x_232                   1                       0
    236 x_236                   1                       0
    242 x_242                   1                      -7
    245 x_245                   1                       0
    247 x_247                   1                      10
    252 x_252                   1                       8
    255 x_255                   1                       4
    261 x_261                   1                      20
    265 x_265                   1                       0
    270 x_270                   1                       0
    274 x_274                   1                      -5
    278 x_278                   1                       0
    282 x_282                   1                       0
    285 x_285                   1                      23
    289 x_289                   1                       1
    291 x_291                   1                       0
    297 x_297                   1                      33
    301 x_301                   1                       0
    307 x_307                   1                      17
    310 x_310                   1                     -15
    316 x_316                   1                     -16
    319 x_319                   1                      30
    327 x_327                   1                      -3
    332 x_332                   1                      -9
    335 x_335                   1                     -25
    341 x_341                   1                      22
    344 x_344                   1                     -20
    349 x_349                   1                       0
    356 x_356                   1                       0
    360 x_360                   1                       0
    365 x_365                   1                       0
    370 x_370                   1                       7
    374 x_374                   1                       0
    376 x_376                   1                       0
    378 x_378                   1                      16
    381 x_381                   1                      -6
    389 x_389                   1                      11
    395 x_395                   1                      42
    399 x_399                   1                       0
    401 x_401                   1                     -23
    404 x_404                   1                      28
    409 x_409                   1                       0
    413 x_413                   1                       3
    416 x_416                   1                     -10
    420 x_420                   1                      24
    426 x_426                   1                      22
    429 x_429                   1                       6
    432 x_432                   1                       7
Optimal - objective value 1966.00000000
      1 x_1                     1                       9
      6 x_6                     1                       0
      8 x_8                     1                       0
     17 x_17                    1                      20
     23 x_23                    1                      -2
     26 x_26                    1                       0
     30 x_30                    1                      16
     31 x_31                    1                     -22
     38 x_38                    1                      18
     43 x_43                    1                     -15
     45 x_45                    1                      11
     49 x_49                    1                      17
     59 x_59                    1                       4
     65 x_65                    1                      -4
     67 x_67                    1                       0
     73 x_73                    1                      -3
     76 x_76                    1                     -11
     82 x_82                    1                       0
     84 x_84                    1                      17
     93 x_93                    1                      12
     96 x_96                    1                      47
     98 x_98                    1                      28
    102 x_102                   1                       0
    110 x_110                   1                      19
    112 x_112                   1                      15
    116 x_116                   1                       0
    121 x_121                   1                       1
    124 x_124                   1                       0
    126 x_126                   1                      20
    133 x_133                   1                      10
    135 x_135                   1                       0
    141 x_141                   1                      15
    144 x_144                   1                       0
    147 x_147                   1                       0
    152 x_152                   1                       9
    158 x_158                   1                      12
    163 x_163                   1                      10
    167 x_167                   1                      12
    172 x_172                   1                       0
    176 x_176                   1                      -4
    183 x_183                   1                      14
    185 x_185                   1                      -4
    190 x_190                   1                      20
    198 x_198                   1                      11
    201 x_201                   1                      49
    204 x_204                   1                     -19
    208 x_208                   1                      -7
    213 x_213                   1                      46
    217 x_217                   1                      21
    218 x_218                   1                      22
    225 x_225                   1                       0
    228 x_228                   1                       0
    232 x_232                   1                       0
    236 x_236                   1                       0
    242 x_242                   1                      -7
    245 x_245                   1                       0
    247 x_247                   1                      10
    252 x_252                   1                       8
    255 x_255                   1                       4
    261 x_261                   1                      20
    265 x_265                   1                       0
    270 x_270                   1                       0
    274 x_274                   1                      -5
    278 x_278                   1                       0
    282 x_282                   1                       0
    285 x_285                   1                      23
    289 x_289                   1                       1
    291 x_291                   1                       0
    297 x_297                   1                      33
    301 x_301                   1                       0
    307 x_307                   1                      17
    310 x_310                   1                     -15
    316 x_316                   1                     -16
    319 x_319                   1                      30
    327 x_327                   1                      -3
    332 x_332                   1                      -9
    335 x_335                   1                     -25
    341 x_341                   1                      22
    344 x_344                   1                     -20
    349 x_349                   1                       0
    356 x_356                   1                       0
    360 x_360                   1                       0
    365 x_365                   1                       0
    370 x_370                   1                       7
    374 x_374                   1                       0
    376 x_376                   1                       0
    378 x_378                   1                      16
    381 x_381                   1                      -6
    389 x_389                   1                      11
    395 x_395                   1                      42
    399 x_399                   1                       0
    401 x_401                   1                     -23
    404 x_404                   1                      28
    409 x_409                   1                       0
    413 x_413                   1                       3
    416 x_416                   1                     -10
    420 x_420                   1                      24
    426 x_426                   1                      22
    429 x_429                   1                       6
    432 x_432                   1                       7
